============================[ Problem Statistics ]=============================|                                                                             ||  Number of variables:          4242                                         ||  Number of clauses:           10027                                         ||  Parse time:                   0.42 s                                       ||                                                                             |============================[ Search Statistics ]==============================| Conflicts |          ORIGINAL         |          LEARNT          | Progress ||           |    Vars  Clauses Literals |    Limit  Clauses Lit/Cl |          |===============================================================================|       100 |    1591     6232   662513 |     2285      100     53 | 62.501 % |===============================================================================restarts              : 3conflicts             : 238            (377 /sec)decisions             : 504            (0.00 % random) (799 /sec)propagations          : 11728          (18586 /sec)conflict literals     : 17734          (94.95 % deleted)CPU time              : 0.631 sSATISFIABLE